\ Model caixeiro_viajante_bb_0
\ LP format - for model browsing. Use MPS format to capture full model detail.
Minimize
  99999 C0 + 99999 C1 + 99999 C2 + 99999 C3 + 99999 C4 + 99999 C5
   + 397.5550276376844 C6 + 646.2584622269948 C7 + 99999 C8 + 99999 C9
   + 853.4453702493206 C10 + 846.5754544043904 C11 + 542.2121356074576 C12
   + 99999 C13 + 612.6116224819767 C14 + 99999 C15 + 99999 C16 + 99999 C17
   + 886.3503821852845 C18 + 853.2338483674918 C19 + 676.0118342159403 C20
   + 364.8191332701726 C21 + 738.9756423590699 C22 + 793.665546688276 C23
   + 99999 C24 + 853.4453702493206 C25 + 886.3503821852845 C26 + 99999 C27
   + 613.8346682943218 C28 + 521.8524695735376 C29 + 562.7379496710703 C30
   + 848.8262484160113 C31 + 99999 C32 + 846.5754544043904 C33
   + 853.2338483674918 C34 + 99999 C35 + 700.0628543209531 C36
   + 500.1209853625421 C37 + 661.314599869079 C38 + 941.3718712602368 C39
   + 99999 C40 + 542.2121356074576 C41 + 676.0118342159403 C42
   + 613.8346682943218 C43 + 700.0628543209531 C44 + 472.1493407810711 C45
   + 99999 C46 + 99999 C47 + 99999 C48 + 99999 C49 + 364.8191332701726 C50
   + 521.8524695735376 C51 + 500.1209853625421 C52 + 472.1493407810711 C53
   + 500.6395909234506 C54 + 678.8755408762346 C55 + 397.5550276376844 C56
   + 612.6116224819767 C57 + 738.9756423590699 C58 + 562.7379496710703 C59
   + 661.314599869079 C60 + 99999 C61 + 500.6395909234506 C62 + 99999 C63
   + 646.2584622269948 C64 + 99999 C65 + 793.665546688276 C66
   + 848.8262484160113 C67 + 941.3718712602368 C68 + 99999 C69
   + 678.8755408762346 C70 + 99999 C71 + 0 C72 + 0 C73 + 0 C74 + 0 C75
   + 0 C76 + 0 C77 + 0 C78 + 0 C79 + 0 C80
Subject To
 R0: C8 + C16 + C24 + C32 + C40 + C48 + C56 + C64 = 1
 R1: C0 + C17 + C25 + C33 + C41 + C49 + C57 + C65 = 1
 R2: C1 + C9 + C26 + C34 + C42 + C50 + C58 + C66 = 1
 R3: C2 + C10 + C18 + C35 + C43 + C51 + C59 + C67 = 1
 R4: C3 + C11 + C19 + C27 + C44 + C52 + C60 + C68 = 1
 R5: C4 + C12 + C20 + C28 + C36 + C53 + C61 + C69 = 1
 R6: C5 + C13 + C21 + C29 + C37 + C45 + C62 + C70 = 1
 R7: C6 + C14 + C22 + C30 + C38 + C46 + C54 + C71 = 1
 R8: C7 + C15 + C23 + C31 + C39 + C47 + C55 + C63 = 1
 R9: C0 + C1 + C2 + C3 + C4 + C5 + C6 + C7 = 1
 R10: C8 + C9 + C10 + C11 + C12 + C13 + C14 + C15 = 1
 R11: C16 + C17 + C18 + C19 + C20 + C21 + C22 + C23 = 1
 R12: C24 + C25 + C26 + C27 + C28 + C29 + C30 + C31 = 1
 R13: C32 + C33 + C34 + C35 + C36 + C37 + C38 + C39 = 1
 R14: C40 + C41 + C42 + C43 + C44 + C45 + C46 + C47 = 1
 R15: C48 + C49 + C50 + C51 + C52 + C53 + C54 + C55 = 1
 R16: C56 + C57 + C58 + C59 + C60 + C61 + C62 + C63 = 1
 R17: C64 + C65 + C66 + C67 + C68 + C69 + C70 + C71 = 1
Bounds
Binaries
 C0 C1 C2 C3 C4 C5 C6 C7 C8 C9 C10 C11 C12 C13 C14 C15 C16 C17 C18 C19 C20
 C21 C22 C23 C24 C25 C26 C27 C28 C29 C30 C31 C32 C33 C34 C35 C36 C37 C38
 C39 C40 C41 C42 C43 C44 C45 C46 C47 C48 C49 C50 C51 C52 C53 C54 C55 C56
 C57 C58 C59 C60 C61 C62 C63 C64 C65 C66 C67 C68 C69 C70 C71
End
